p cnf 319 4
-156 -32 -43 -17 -98 -181 -263 -147 -125 -298 -123 -13 -275 -111 258 5 6 262 263 9 267 268 13 14 272 17 273 275 20 282 286 32 34 295 298 43 44 45 46 299 300 301 50 302 52 303 305 309 56 57 310 312 60 61 315 317 67 69 72 77 79 81 84 88 89 94 98 99 103 106 109 111 114 118 120 121 123 125 134 137 143 147 148 154 156 159 160 164 166 168 169 172 173 174 175 180 181 183 184 187 191 192 195 201 202 206 207 208 209 216 218 220 226 227 233 234 235 241 242 247 248 249 251 252 253 254 0
-253 -234 -153 -28 -4 -19 -280 -308 -207 -208 -143 -142 -74 -200 -39 -52 -241 -304 -224 -185 -245 -128 -218 -310 -174 -183 -62 -290 -201 -283 -93 -72 -252 -63 -222 -117 -144 -129 -249 -110 -76 -316 -32 -139 -282 -235 -259 -140 1 4 5 6 8 10 11 12 13 17 18 19 20 24 26 28 29 31 32 33 35 37 38 39 40 42 43 45 46 48 50 52 53 56 58 59 60 61 62 63 65 66 67 68 69 70 71 72 73 74 75 76 77 78 81 83 84 85 91 93 94 97 98 99 100 103 104 105 108 109 110 111 112 113 114 117 118 119 121 122 124 126 127 128 129 130 131 132 133 134 135 138 139 140 142 143 144 146 147 148 149 150 151 152 153 155 156 157 158 159 160 161 163 165 166 167 168 169 172 173 174 175 176 177 178 179 180 181 182 183 184 185 187 188 189 190 191 192 193 194 197 198 199 200 201 202 203 204 205 207 208 209 210 212 213 216 217 218 219 220 221 222 224 225 226 228 229 230 232 234 235 237 238 239 241 242 243 244 245 246 247 248 249 251 252 253 254 255 257 259 261 263 265 267 268 269 270 271 272 273 275 277 278 279 280 282 283 284 286 287 288 289 290 291 294 296 297 299 300 301 303 304 305 306 307 308 309 310 311 312 315 316 317 0
-228 -65 -102 -270 -254 -252 1 2 3 4 5 6 7 8 10 11 12 14 17 18 19 21 22 24 25 26 29 30 31 32 33 40 41 42 44 48 49 50 51 52 53 54 55 56 58 62 64 65 67 68 69 70 72 73 74 75 76 77 79 80 82 83 84 86 87 88 91 92 94 95 96 97 101 102 104 107 108 110 113 115 117 118 121 122 124 126 128 129 131 132 135 136 137 140 142 143 144 145 146 149 150 153 154 157 158 159 160 161 163 164 168 169 172 173 174 175 177 179 180 181 182 183 184 185 187 188 189 194 195 196 198 201 204 205 206 207 209 210 212 213 215 216 219 220 222 224 228 232 234 236 239 241 242 244 245 246 247 248 250 252 253 254 255 256 257 259 262 263 264 265 267 268 269 270 272 276 278 279 280 282 285 288 289 291 294 295 296 297 299 300 302 303 304 306 307 308 309 311 312 313 314 319 0
-92 -286 -93 -230 -271 -79 -172 -233 -319 -297 -13 -313 -34 -95 -206 -116 -28 -309 -301 -133 -118 -127 -43 -198 -248 -15 -46 -294 -266 -291 -204 -241 -8 -23 -54 -147 -182 -58 -30 -146 -304 -62 -156 -289 -131 -200 -312 -171 -80 -229 -91 -2 -22 -33 -51 -259 -208 -245 -119 -190 -103 -278 -154 -272 -282 -255 -223 -129 -78 -42 2 5 7 8 9 13 14 15 16 17 18 19 20 22 23 24 25 28 29 30 31 32 33 34 35 38 39 40 41 42 43 44 45 46 47 49 50 51 52 53 54 55 56 57 58 59 61 62 63 65 66 68 69 70 71 72 73 75 76 77 78 79 80 81 82 84 85 86 89 90 91 92 93 94 95 98 99 100 101 103 104 105 106 107 109 110 111 113 114 115 116 117 118 119 120 121 122 126 127 128 129 131 132 133 134 136 138 140 141 142 143 144 145 146 147 148 149 150 151 153 154 156 157 158 159 162 163 164 165 166 167 168 171 172 173 175 176 178 181 182 183 185 186 187 188 189 190 191 192 193 195 196 198 200 201 203 204 205 206 207 208 211 212 213 214 215 216 217 218 219 221 223 224 225 226 227 229 230 231 232 233 234 237 238 240 241 242 243 244 245 246 247 248 249 250 252 253 255 256 257 258 259 260 261 262 264 266 267 268 269 271 272 274 275 276 277 278 280 282 284 285 286 287 289 291 293 294 295 296 297 298 299 301 303 304 307 309 311 312 313 314 315 316 317 318 319 0
